42	0

0	3	2	3	4
9	3	5	6	8
4	4	5	6	8	10
9	3	5	6	8
2	2	7	9
10	2	11	13
5	2	11	13
4	1	9
3	2	11	13
10	2	11	13
3	2	12	14
6	2	15	18
4	2	14	18
7	1	15
1	2	16	17
3	2	19	20
6	2	19	22
8	2	19	22
6	2	21	23
6	3	21	22	23
7	1	24
10	1	24
9	2	25	26
5	2	25	26
3	1	27
5	1	28
1	1	28
1	1	29
4	1	30
1	1	31
8	1	32
2	1	33
6	1	34
9	1	35
3	1	36
6	1	37
9	1	38
10	1	39
9	1	40
10	1	41
6	1	42
0	0
